PARAMETER_FILE = even/even_uncomplete_graph_new/de/par/random196.par
PROBLEM_FILE = even/even_uncomplete_graph_new/de/mat/random196.tsp
Successes/Runs = 0/10
Cost.min = 1043, Cost.avg = 1043.00, Cost.max = 1043
Gap.min = 0.0000%, Gap.avg = 0.0000%, Gap.max = 0.0000%
Trials.min = 1000, Trials.avg = 1000.0, Trials.max = 1000
Time.min = 0.82 sec., Time.avg = 1.03 sec., Time.max = 1.41 sec.
Time.total = 10.41 sec.
请按任意键继续. . . 
